
Gurobi 11.0.3 (mac64[arm], gurobi_cl) logging started Mon Mar 17 14:32:53 2025

Set parameter Username
Set parameter LogFile to value "gurobi.log"
Using license file /Users/lucas/gurobi.lic
Academic license - for non-commercial use only - expires 2025-11-24
